350 150 1  1 
80 30 1  1 
10 4 1  1 
70 29 1  1 
40 17 1  1 
30 13 1  1 
200 79 1  1 
50 23 1  1 
40 16 1  1 
350 145 1  1 
300 124 1  1 
20 8 1  1 
200 82 1  1 
300 126 1  1 
60 21 1  1 
250 109 1  1 
90 36 1  1 
60 25 1  1 
10 4 1  1 
30 13 1  1 
250 106 1  1 
250 108 1  1 
60 24 1  1 
20 8 1  1 
40 15 1  1 
100 39 1  1 
90 36 1  1 
70 30 1  1 
250 104 1  1 
30 10 1  1 
70 32 1  1 
50 19 1  1 
50 19 1  1 
90 37 1  1 
10 3 1  1 
50 19 1  1 
300 125 1  1 
10 5 1  1 
300 125 1  1 
150 65 1  1 
70 29 1  1 
300 121 1  1 
150 61 1  1 
150 61 1  1 
350 146 1  1 
50 22 1  1 
250 109 1  1 
90 36 1  1 
80 32 1  1 
350 147 1  1 
150 62 1  1 
200 85 1  1 
20 8 1  1 
60 24 1  1 
350 148 1  1 
10 5 1  1 
200 86 1  1 
250 102 1  1 
30 12 1  1 
30 11 1  1 
40 18 1  1 
40 14 1  1 
60 24 1  1 
300 122 1  1 
40 17 1  1 
70 30 1  1 
10 4 1  1 
60 25 1  1 
350 154 1  1 
20 9 1  1 
20 8 1  1 
150 59 1  1 
100 39 1  1 
70 31 1  1 
200 85 1  1 
10 3 1  1 
300 127 1  1 
60 28 1  1 
250 109 1  1 
60 26 1  1 
90 34 1  1 
150 63 1  1 
60 25 1  1 
100 41 1  1 
100 46 1  1 
30 13 1  1 
350 150 1  1 
20 8 1  1 
90 38 1  1 
20 9 1  1 
80 34 1  1 
80 33 1  1 
30 13 1  1 
350 147 1  1 
60 27 1  1 
100 40 1  1 
20 7 1  1 
100 40 1  1 
40 17 1  1 
150 59 1  1 
50 18 1  1 
100 42 1  1 
50 21 1  1 
50 18 1  1 
70 30 1  1 
20 8 1  1 
100 44 1  1 
70 30 1  1 
80 33 1  1 
200 88 1  1 
300 124 1  1 
30 11 1  1 
10 4 1  1 
250 99 1  1 
40 15 1  1 
300 128 1  1 
90 37 1  1 
30 13 1  1 
150 61 1  1 
40 16 1  1 
350 148 1  1 
70 28 1  1 
250 100 1  1 
10 5 1  1 
40 18 1  1 
20 8 1  1 
90 40 1  1 
250 109 1  1 
150 65 1  1 
30 12 1  1 
80 32 1  1 
50 24 1  1 
70 30 1  1 
200 85 1  1 
150 64 1  1 
80 31 1  1 
100 40 1  1 
200 82 1  1 
50 20 1  1 
80 33 1  1 
80 31 1  1 
350 145 1  1 
200 90 1  1 
90 35 1  1 
100 41 1  1 
10 4 1  1 
90 36 1  1 
80 32 1  1 
200 86 1  1 
300 128 1  1 
